memory 24 GB

molecule dimer {
2 1 
 Zn                 2.07135600    3.02293900    0.41435000
--
0 1
 N                  1.00330200    1.97652700   -1.10406000
 C                 -0.24466600    1.36600000   -0.85426200
 C                 -1.42026700    2.11824700   -0.92469600
 C                 -2.64765000    1.52433300   -0.67004700
 C                 -2.74032800    0.16417300   -0.33442800
 C                 -1.55256500   -0.58945500   -0.23382400
 C                 -0.32546500    0.01072400   -0.49291600
 N                  0.84799700   -0.76057800   -0.46640600
 C                  1.90536100   -0.42139200    0.29108400
 O                  1.83437300    0.56651200    1.00198600
 C                  3.09982700   -1.29473200    0.20105600
 C                  3.33277900   -1.99549000   -0.97951500
 C                  4.43037400   -2.82924700   -1.10477000
 C                  5.31388400   -2.97482100   -0.04814600
 C                  5.09039000   -2.28607000    1.13876500
 C                  3.98721000   -1.45170200    1.27839300
 C                 -4.05665300   -0.47680100   -0.03195500
 C                 -4.28432500   -1.82394000   -0.34581500
 C                 -5.50480100   -2.41225100   -0.02021300
 C                 -6.51257400   -1.68272500    0.61445900
 C                 -6.29850500   -0.34633500    0.93989900
 C                 -5.08163500    0.24900700    0.62227300
 H                  0.91698900    2.64398900   -1.87169300
 H                  1.70925200    1.28991500   -1.37164400
 H                 -1.38217700    3.16939200   -1.19612900
 H                 -3.54867800    2.11839200   -0.76801700
 H                 -1.58099600   -1.62955300    0.06810100
 H                  0.78831100   -1.71581800   -0.79428200
 H                  2.67900800   -1.87285600   -1.83897100
 H                  4.60232000   -3.35698400   -2.03629100
 H                  6.17577500   -3.62614500   -0.14310800
 H                  5.77234500   -2.40789200    1.97296100
 H                  3.80262400   -0.92667300    2.20913600
 H                 -3.53743100   -2.40499500   -0.87478200
 H                 -5.68135100   -3.44845200   -0.28665600
 H                 -7.45742600   -2.15985600    0.85158100
 H                 -7.06337500    0.22801300    1.44944800
 H                 -4.91228700    1.28248700    0.90516600
units angstrom
no_reorient
symmetry c1
}

set {
    scf_type DF
    freeze_core True
    basis aug-cc-pVTZ
}

energy('sapt0')


